750 1
386 2
369 3
358 4
382 5
390 6
357 7
391 8
399 9
384 10
366 11
374 12
407 13
375 14
367 15
417 16
364 17
373 18
355 19
403 20
366 21
370 22
397 23
364 24
379 25
374 26
383 27
358 28
368 29
372 30
362 31
361 32
